Minimize
 obj: 0 X_0_1
Subject To
 out_0:
  + 1 X_0_1 + 1 X_0_2 + 1 X_0_3 + 1 X_0_4 + 1 X_0_5 + 1 X_0_6 + 1 X_0_7 + 1 X_0_8
  + 1 X_0_9 + 1 X_0_10 + 1 X_0_11 + 1 X_0_12 + 1 X_0_13 + 1 X_0_14
  = 1
 in_0:
  + 1 X_1_0 + 1 X_2_0 + 1 X_3_0 + 1 X_4_0 + 1 X_5_0 + 1 X_6_0 + 1 X_7_0 + 1 X_8_0
  + 1 X_9_0 + 1 X_10_0 + 1 X_11_0 + 1 X_12_0 + 1 X_13_0 + 1 X_14_0
  = 1
 out_1:
  + 1 X_1_0 + 1 X_1_2 + 1 X_1_3 + 1 X_1_4 + 1 X_1_5 + 1 X_1_6 + 1 X_1_7 + 1 X_1_8
  + 1 X_1_9 + 1 X_1_10 + 1 X_1_11 + 1 X_1_12 + 1 X_1_13 + 1 X_1_14
  = 1
 in_1:
  + 1 X_0_1 + 1 X_2_1 + 1 X_3_1 + 1 X_4_1 + 1 X_5_1 + 1 X_6_1 + 1 X_7_1 + 1 X_8_1
  + 1 X_9_1 + 1 X_10_1 + 1 X_11_1 + 1 X_12_1 + 1 X_13_1 + 1 X_14_1
  = 1
 out_2:
  + 1 X_2_0 + 1 X_2_1 + 1 X_2_3 + 1 X_2_4 + 1 X_2_5 + 1 X_2_6 + 1 X_2_7 + 1 X_2_8
  + 1 X_2_9 + 1 X_2_10 + 1 X_2_11 + 1 X_2_12 + 1 X_2_13 + 1 X_2_14
  = 1
 in_2:
  + 1 X_0_2 + 1 X_1_2 + 1 X_3_2 + 1 X_4_2 + 1 X_5_2 + 1 X_6_2 + 1 X_7_2 + 1 X_8_2
  + 1 X_9_2 + 1 X_10_2 + 1 X_11_2 + 1 X_12_2 + 1 X_13_2 + 1 X_14_2
  = 1
 out_3:
  + 1 X_3_0 + 1 X_3_1 + 1 X_3_2 + 1 X_3_4 + 1 X_3_5 + 1 X_3_6 + 1 X_3_7 + 1 X_3_8
  + 1 X_3_9 + 1 X_3_10 + 1 X_3_11 + 1 X_3_12 + 1 X_3_13 + 1 X_3_14
  = 1
 in_3:
  + 1 X_0_3 + 1 X_1_3 + 1 X_2_3 + 1 X_4_3 + 1 X_5_3 + 1 X_6_3 + 1 X_7_3 + 1 X_8_3
  + 1 X_9_3 + 1 X_10_3 + 1 X_11_3 + 1 X_12_3 + 1 X_13_3 + 1 X_14_3
  = 1
 out_4:
  + 1 X_4_0 + 1 X_4_1 + 1 X_4_2 + 1 X_4_3 + 1 X_4_5 + 1 X_4_6 + 1 X_4_7 + 1 X_4_8
  + 1 X_4_9 + 1 X_4_10 + 1 X_4_11 + 1 X_4_12 + 1 X_4_13 + 1 X_4_14
  = 1
 in_4:
  + 1 X_0_4 + 1 X_1_4 + 1 X_2_4 + 1 X_3_4 + 1 X_5_4 + 1 X_6_4 + 1 X_7_4 + 1 X_8_4
  + 1 X_9_4 + 1 X_10_4 + 1 X_11_4 + 1 X_12_4 + 1 X_13_4 + 1 X_14_4
  = 1
 out_5:
  + 1 X_5_0 + 1 X_5_1 + 1 X_5_2 + 1 X_5_3 + 1 X_5_4 + 1 X_5_6 + 1 X_5_7 + 1 X_5_8
  + 1 X_5_9 + 1 X_5_10 + 1 X_5_11 + 1 X_5_12 + 1 X_5_13 + 1 X_5_14
  = 1
 in_5:
  + 1 X_0_5 + 1 X_1_5 + 1 X_2_5 + 1 X_3_5 + 1 X_4_5 + 1 X_6_5 + 1 X_7_5 + 1 X_8_5
  + 1 X_9_5 + 1 X_10_5 + 1 X_11_5 + 1 X_12_5 + 1 X_13_5 + 1 X_14_5
  = 1
 out_6:
  + 1 X_6_0 + 1 X_6_1 + 1 X_6_2 + 1 X_6_3 + 1 X_6_4 + 1 X_6_5 + 1 X_6_7 + 1 X_6_8
  + 1 X_6_9 + 1 X_6_10 + 1 X_6_11 + 1 X_6_12 + 1 X_6_13 + 1 X_6_14
  = 1
 in_6:
  + 1 X_0_6 + 1 X_1_6 + 1 X_2_6 + 1 X_3_6 + 1 X_4_6 + 1 X_5_6 + 1 X_7_6 + 1 X_8_6
  + 1 X_9_6 + 1 X_10_6 + 1 X_11_6 + 1 X_12_6 + 1 X_13_6 + 1 X_14_6
  = 1
 out_7:
  + 1 X_7_0 + 1 X_7_1 + 1 X_7_2 + 1 X_7_3 + 1 X_7_4 + 1 X_7_5 + 1 X_7_6 + 1 X_7_8
  + 1 X_7_9 + 1 X_7_10 + 1 X_7_11 + 1 X_7_12 + 1 X_7_13 + 1 X_7_14
  = 1
 in_7:
  + 1 X_0_7 + 1 X_1_7 + 1 X_2_7 + 1 X_3_7 + 1 X_4_7 + 1 X_5_7 + 1 X_6_7 + 1 X_8_7
  + 1 X_9_7 + 1 X_10_7 + 1 X_11_7 + 1 X_12_7 + 1 X_13_7 + 1 X_14_7
  = 1
 out_8:
  + 1 X_8_0 + 1 X_8_1 + 1 X_8_2 + 1 X_8_3 + 1 X_8_4 + 1 X_8_5 + 1 X_8_6 + 1 X_8_7
  + 1 X_8_9 + 1 X_8_10 + 1 X_8_11 + 1 X_8_12 + 1 X_8_13 + 1 X_8_14
  = 1
 in_8:
  + 1 X_0_8 + 1 X_1_8 + 1 X_2_8 + 1 X_3_8 + 1 X_4_8 + 1 X_5_8 + 1 X_6_8 + 1 X_7_8
  + 1 X_9_8 + 1 X_10_8 + 1 X_11_8 + 1 X_12_8 + 1 X_13_8 + 1 X_14_8
  = 1
 out_9:
  + 1 X_9_0 + 1 X_9_1 + 1 X_9_2 + 1 X_9_3 + 1 X_9_4 + 1 X_9_5 + 1 X_9_6 + 1 X_9_7
  + 1 X_9_8 + 1 X_9_10 + 1 X_9_11 + 1 X_9_12 + 1 X_9_13 + 1 X_9_14
  = 1
 in_9:
  + 1 X_0_9 + 1 X_1_9 + 1 X_2_9 + 1 X_3_9 + 1 X_4_9 + 1 X_5_9 + 1 X_6_9 + 1 X_7_9
  + 1 X_8_9 + 1 X_10_9 + 1 X_11_9 + 1 X_12_9 + 1 X_13_9 + 1 X_14_9
  = 1
 out_10:
  + 1 X_10_0 + 1 X_10_1 + 1 X_10_2 + 1 X_10_3 + 1 X_10_4 + 1 X_10_5 + 1 X_10_6 + 1 X_10_7
  + 1 X_10_8 + 1 X_10_9 + 1 X_10_11 + 1 X_10_12 + 1 X_10_13 + 1 X_10_14
  = 1
 in_10:
  + 1 X_0_10 + 1 X_1_10 + 1 X_2_10 + 1 X_3_10 + 1 X_4_10 + 1 X_5_10 + 1 X_6_10 + 1 X_7_10
  + 1 X_8_10 + 1 X_9_10 + 1 X_11_10 + 1 X_12_10 + 1 X_13_10 + 1 X_14_10
  = 1
 out_11:
  + 1 X_11_0 + 1 X_11_1 + 1 X_11_2 + 1 X_11_3 + 1 X_11_4 + 1 X_11_5 + 1 X_11_6 + 1 X_11_7
  + 1 X_11_8 + 1 X_11_9 + 1 X_11_10 + 1 X_11_12 + 1 X_11_13 + 1 X_11_14
  = 1
 in_11:
  + 1 X_0_11 + 1 X_1_11 + 1 X_2_11 + 1 X_3_11 + 1 X_4_11 + 1 X_5_11 + 1 X_6_11 + 1 X_7_11
  + 1 X_8_11 + 1 X_9_11 + 1 X_10_11 + 1 X_12_11 + 1 X_13_11 + 1 X_14_11
  = 1
 out_12:
  + 1 X_12_0 + 1 X_12_1 + 1 X_12_2 + 1 X_12_3 + 1 X_12_4 + 1 X_12_5 + 1 X_12_6 + 1 X_12_7
  + 1 X_12_8 + 1 X_12_9 + 1 X_12_10 + 1 X_12_11 + 1 X_12_13 + 1 X_12_14
  = 1
 in_12:
  + 1 X_0_12 + 1 X_1_12 + 1 X_2_12 + 1 X_3_12 + 1 X_4_12 + 1 X_5_12 + 1 X_6_12 + 1 X_7_12
  + 1 X_8_12 + 1 X_9_12 + 1 X_10_12 + 1 X_11_12 + 1 X_13_12 + 1 X_14_12
  = 1
 out_13:
  + 1 X_13_0 + 1 X_13_1 + 1 X_13_2 + 1 X_13_3 + 1 X_13_4 + 1 X_13_5 + 1 X_13_6 + 1 X_13_7
  + 1 X_13_8 + 1 X_13_9 + 1 X_13_10 + 1 X_13_11 + 1 X_13_12 + 1 X_13_14
  = 1
 in_13:
  + 1 X_0_13 + 1 X_1_13 + 1 X_2_13 + 1 X_3_13 + 1 X_4_13 + 1 X_5_13 + 1 X_6_13 + 1 X_7_13
  + 1 X_8_13 + 1 X_9_13 + 1 X_10_13 + 1 X_11_13 + 1 X_12_13 + 1 X_14_13
  = 1
 out_14:
  + 1 X_14_0 + 1 X_14_1 + 1 X_14_2 + 1 X_14_3 + 1 X_14_4 + 1 X_14_5 + 1 X_14_6 + 1 X_14_7
  + 1 X_14_8 + 1 X_14_9 + 1 X_14_10 + 1 X_14_11 + 1 X_14_12 + 1 X_14_13
  = 1
 in_14:
  + 1 X_0_14 + 1 X_1_14 + 1 X_2_14 + 1 X_3_14 + 1 X_4_14 + 1 X_5_14 + 1 X_6_14 + 1 X_7_14
  + 1 X_8_14 + 1 X_9_14 + 1 X_10_14 + 1 X_11_14 + 1 X_12_14 + 1 X_13_14
  = 1
 mtz_1_2:
  + 1 U1 - 1 U2 + 14 X_1_2
  <= 13
 mtz_1_3:
  + 1 U1 - 1 U3 + 14 X_1_3
  <= 13
 mtz_1_4:
  + 1 U1 - 1 U4 + 14 X_1_4
  <= 13
 mtz_1_5:
  + 1 U1 - 1 U5 + 14 X_1_5
  <= 13
 mtz_1_6:
  + 1 U1 - 1 U6 + 14 X_1_6
  <= 13
 mtz_1_7:
  + 1 U1 - 1 U7 + 14 X_1_7
  <= 13
 mtz_1_8:
  + 1 U1 - 1 U8 + 14 X_1_8
  <= 13
 mtz_1_9:
  + 1 U1 - 1 U9 + 14 X_1_9
  <= 13
 mtz_1_10:
  + 1 U1 - 1 U10 + 14 X_1_10
  <= 13
 mtz_1_11:
  + 1 U1 - 1 U11 + 14 X_1_11
  <= 13
 mtz_1_12:
  + 1 U1 - 1 U12 + 14 X_1_12
  <= 13
 mtz_1_13:
  + 1 U1 - 1 U13 + 14 X_1_13
  <= 13
 mtz_1_14:
  + 1 U1 - 1 U14 + 14 X_1_14
  <= 13
 mtz_2_1:
  + 1 U2 - 1 U1 + 14 X_2_1
  <= 13
 mtz_2_3:
  + 1 U2 - 1 U3 + 14 X_2_3
  <= 13
 mtz_2_4:
  + 1 U2 - 1 U4 + 14 X_2_4
  <= 13
 mtz_2_5:
  + 1 U2 - 1 U5 + 14 X_2_5
  <= 13
 mtz_2_6:
  + 1 U2 - 1 U6 + 14 X_2_6
  <= 13
 mtz_2_7:
  + 1 U2 - 1 U7 + 14 X_2_7
  <= 13
 mtz_2_8:
  + 1 U2 - 1 U8 + 14 X_2_8
  <= 13
 mtz_2_9:
  + 1 U2 - 1 U9 + 14 X_2_9
  <= 13
 mtz_2_10:
  + 1 U2 - 1 U10 + 14 X_2_10
  <= 13
 mtz_2_11:
  + 1 U2 - 1 U11 + 14 X_2_11
  <= 13
 mtz_2_12:
  + 1 U2 - 1 U12 + 14 X_2_12
  <= 13
 mtz_2_13:
  + 1 U2 - 1 U13 + 14 X_2_13
  <= 13
 mtz_2_14:
  + 1 U2 - 1 U14 + 14 X_2_14
  <= 13
 mtz_3_1:
  + 1 U3 - 1 U1 + 14 X_3_1
  <= 13
 mtz_3_2:
  + 1 U3 - 1 U2 + 14 X_3_2
  <= 13
 mtz_3_4:
  + 1 U3 - 1 U4 + 14 X_3_4
  <= 13
 mtz_3_5:
  + 1 U3 - 1 U5 + 14 X_3_5
  <= 13
 mtz_3_6:
  + 1 U3 - 1 U6 + 14 X_3_6
  <= 13
 mtz_3_7:
  + 1 U3 - 1 U7 + 14 X_3_7
  <= 13
 mtz_3_8:
  + 1 U3 - 1 U8 + 14 X_3_8
  <= 13
 mtz_3_9:
  + 1 U3 - 1 U9 + 14 X_3_9
  <= 13
 mtz_3_10:
  + 1 U3 - 1 U10 + 14 X_3_10
  <= 13
 mtz_3_11:
  + 1 U3 - 1 U11 + 14 X_3_11
  <= 13
 mtz_3_12:
  + 1 U3 - 1 U12 + 14 X_3_12
  <= 13
 mtz_3_13:
  + 1 U3 - 1 U13 + 14 X_3_13
  <= 13
 mtz_3_14:
  + 1 U3 - 1 U14 + 14 X_3_14
  <= 13
 mtz_4_1:
  + 1 U4 - 1 U1 + 14 X_4_1
  <= 13
 mtz_4_2:
  + 1 U4 - 1 U2 + 14 X_4_2
  <= 13
 mtz_4_3:
  + 1 U4 - 1 U3 + 14 X_4_3
  <= 13
 mtz_4_5:
  + 1 U4 - 1 U5 + 14 X_4_5
  <= 13
 mtz_4_6:
  + 1 U4 - 1 U6 + 14 X_4_6
  <= 13
 mtz_4_7:
  + 1 U4 - 1 U7 + 14 X_4_7
  <= 13
 mtz_4_8:
  + 1 U4 - 1 U8 + 14 X_4_8
  <= 13
 mtz_4_9:
  + 1 U4 - 1 U9 + 14 X_4_9
  <= 13
 mtz_4_10:
  + 1 U4 - 1 U10 + 14 X_4_10
  <= 13
 mtz_4_11:
  + 1 U4 - 1 U11 + 14 X_4_11
  <= 13
 mtz_4_12:
  + 1 U4 - 1 U12 + 14 X_4_12
  <= 13
 mtz_4_13:
  + 1 U4 - 1 U13 + 14 X_4_13
  <= 13
 mtz_4_14:
  + 1 U4 - 1 U14 + 14 X_4_14
  <= 13
 mtz_5_1:
  + 1 U5 - 1 U1 + 14 X_5_1
  <= 13
 mtz_5_2:
  + 1 U5 - 1 U2 + 14 X_5_2
  <= 13
 mtz_5_3:
  + 1 U5 - 1 U3 + 14 X_5_3
  <= 13
 mtz_5_4:
  + 1 U5 - 1 U4 + 14 X_5_4
  <= 13
 mtz_5_6:
  + 1 U5 - 1 U6 + 14 X_5_6
  <= 13
 mtz_5_7:
  + 1 U5 - 1 U7 + 14 X_5_7
  <= 13
 mtz_5_8:
  + 1 U5 - 1 U8 + 14 X_5_8
  <= 13
 mtz_5_9:
  + 1 U5 - 1 U9 + 14 X_5_9
  <= 13
 mtz_5_10:
  + 1 U5 - 1 U10 + 14 X_5_10
  <= 13
 mtz_5_11:
  + 1 U5 - 1 U11 + 14 X_5_11
  <= 13
 mtz_5_12:
  + 1 U5 - 1 U12 + 14 X_5_12
  <= 13
 mtz_5_13:
  + 1 U5 - 1 U13 + 14 X_5_13
  <= 13
 mtz_5_14:
  + 1 U5 - 1 U14 + 14 X_5_14
  <= 13
 mtz_6_1:
  + 1 U6 - 1 U1 + 14 X_6_1
  <= 13
 mtz_6_2:
  + 1 U6 - 1 U2 + 14 X_6_2
  <= 13
 mtz_6_3:
  + 1 U6 - 1 U3 + 14 X_6_3
  <= 13
 mtz_6_4:
  + 1 U6 - 1 U4 + 14 X_6_4
  <= 13
 mtz_6_5:
  + 1 U6 - 1 U5 + 14 X_6_5
  <= 13
 mtz_6_7:
  + 1 U6 - 1 U7 + 14 X_6_7
  <= 13
 mtz_6_8:
  + 1 U6 - 1 U8 + 14 X_6_8
  <= 13
 mtz_6_9:
  + 1 U6 - 1 U9 + 14 X_6_9
  <= 13
 mtz_6_10:
  + 1 U6 - 1 U10 + 14 X_6_10
  <= 13
 mtz_6_11:
  + 1 U6 - 1 U11 + 14 X_6_11
  <= 13
 mtz_6_12:
  + 1 U6 - 1 U12 + 14 X_6_12
  <= 13
 mtz_6_13:
  + 1 U6 - 1 U13 + 14 X_6_13
  <= 13
 mtz_6_14:
  + 1 U6 - 1 U14 + 14 X_6_14
  <= 13
 mtz_7_1:
  + 1 U7 - 1 U1 + 14 X_7_1
  <= 13
 mtz_7_2:
  + 1 U7 - 1 U2 + 14 X_7_2
  <= 13
 mtz_7_3:
  + 1 U7 - 1 U3 + 14 X_7_3
  <= 13
 mtz_7_4:
  + 1 U7 - 1 U4 + 14 X_7_4
  <= 13
 mtz_7_5:
  + 1 U7 - 1 U5 + 14 X_7_5
  <= 13
 mtz_7_6:
  + 1 U7 - 1 U6 + 14 X_7_6
  <= 13
 mtz_7_8:
  + 1 U7 - 1 U8 + 14 X_7_8
  <= 13
 mtz_7_9:
  + 1 U7 - 1 U9 + 14 X_7_9
  <= 13
 mtz_7_10:
  + 1 U7 - 1 U10 + 14 X_7_10
  <= 13
 mtz_7_11:
  + 1 U7 - 1 U11 + 14 X_7_11
  <= 13
 mtz_7_12:
  + 1 U7 - 1 U12 + 14 X_7_12
  <= 13
 mtz_7_13:
  + 1 U7 - 1 U13 + 14 X_7_13
  <= 13
 mtz_7_14:
  + 1 U7 - 1 U14 + 14 X_7_14
  <= 13
 mtz_8_1:
  + 1 U8 - 1 U1 + 14 X_8_1
  <= 13
 mtz_8_2:
  + 1 U8 - 1 U2 + 14 X_8_2
  <= 13
 mtz_8_3:
  + 1 U8 - 1 U3 + 14 X_8_3
  <= 13
 mtz_8_4:
  + 1 U8 - 1 U4 + 14 X_8_4
  <= 13
 mtz_8_5:
  + 1 U8 - 1 U5 + 14 X_8_5
  <= 13
 mtz_8_6:
  + 1 U8 - 1 U6 + 14 X_8_6
  <= 13
 mtz_8_7:
  + 1 U8 - 1 U7 + 14 X_8_7
  <= 13
 mtz_8_9:
  + 1 U8 - 1 U9 + 14 X_8_9
  <= 13
 mtz_8_10:
  + 1 U8 - 1 U10 + 14 X_8_10
  <= 13
 mtz_8_11:
  + 1 U8 - 1 U11 + 14 X_8_11
  <= 13
 mtz_8_12:
  + 1 U8 - 1 U12 + 14 X_8_12
  <= 13
 mtz_8_13:
  + 1 U8 - 1 U13 + 14 X_8_13
  <= 13
 mtz_8_14:
  + 1 U8 - 1 U14 + 14 X_8_14
  <= 13
 mtz_9_1:
  + 1 U9 - 1 U1 + 14 X_9_1
  <= 13
 mtz_9_2:
  + 1 U9 - 1 U2 + 14 X_9_2
  <= 13
 mtz_9_3:
  + 1 U9 - 1 U3 + 14 X_9_3
  <= 13
 mtz_9_4:
  + 1 U9 - 1 U4 + 14 X_9_4
  <= 13
 mtz_9_5:
  + 1 U9 - 1 U5 + 14 X_9_5
  <= 13
 mtz_9_6:
  + 1 U9 - 1 U6 + 14 X_9_6
  <= 13
 mtz_9_7:
  + 1 U9 - 1 U7 + 14 X_9_7
  <= 13
 mtz_9_8:
  + 1 U9 - 1 U8 + 14 X_9_8
  <= 13
 mtz_9_10:
  + 1 U9 - 1 U10 + 14 X_9_10
  <= 13
 mtz_9_11:
  + 1 U9 - 1 U11 + 14 X_9_11
  <= 13
 mtz_9_12:
  + 1 U9 - 1 U12 + 14 X_9_12
  <= 13
 mtz_9_13:
  + 1 U9 - 1 U13 + 14 X_9_13
  <= 13
 mtz_9_14:
  + 1 U9 - 1 U14 + 14 X_9_14
  <= 13
 mtz_10_1:
  + 1 U10 - 1 U1 + 14 X_10_1
  <= 13
 mtz_10_2:
  + 1 U10 - 1 U2 + 14 X_10_2
  <= 13
 mtz_10_3:
  + 1 U10 - 1 U3 + 14 X_10_3
  <= 13
 mtz_10_4:
  + 1 U10 - 1 U4 + 14 X_10_4
  <= 13
 mtz_10_5:
  + 1 U10 - 1 U5 + 14 X_10_5
  <= 13
 mtz_10_6:
  + 1 U10 - 1 U6 + 14 X_10_6
  <= 13
 mtz_10_7:
  + 1 U10 - 1 U7 + 14 X_10_7
  <= 13
 mtz_10_8:
  + 1 U10 - 1 U8 + 14 X_10_8
  <= 13
 mtz_10_9:
  + 1 U10 - 1 U9 + 14 X_10_9
  <= 13
 mtz_10_11:
  + 1 U10 - 1 U11 + 14 X_10_11
  <= 13
 mtz_10_12:
  + 1 U10 - 1 U12 + 14 X_10_12
  <= 13
 mtz_10_13:
  + 1 U10 - 1 U13 + 14 X_10_13
  <= 13
 mtz_10_14:
  + 1 U10 - 1 U14 + 14 X_10_14
  <= 13
 mtz_11_1:
  + 1 U11 - 1 U1 + 14 X_11_1
  <= 13
 mtz_11_2:
  + 1 U11 - 1 U2 + 14 X_11_2
  <= 13
 mtz_11_3:
  + 1 U11 - 1 U3 + 14 X_11_3
  <= 13
 mtz_11_4:
  + 1 U11 - 1 U4 + 14 X_11_4
  <= 13
 mtz_11_5:
  + 1 U11 - 1 U5 + 14 X_11_5
  <= 13
 mtz_11_6:
  + 1 U11 - 1 U6 + 14 X_11_6
  <= 13
 mtz_11_7:
  + 1 U11 - 1 U7 + 14 X_11_7
  <= 13
 mtz_11_8:
  + 1 U11 - 1 U8 + 14 X_11_8
  <= 13
 mtz_11_9:
  + 1 U11 - 1 U9 + 14 X_11_9
  <= 13
 mtz_11_10:
  + 1 U11 - 1 U10 + 14 X_11_10
  <= 13
 mtz_11_12:
  + 1 U11 - 1 U12 + 14 X_11_12
  <= 13
 mtz_11_13:
  + 1 U11 - 1 U13 + 14 X_11_13
  <= 13
 mtz_11_14:
  + 1 U11 - 1 U14 + 14 X_11_14
  <= 13
 mtz_12_1:
  + 1 U12 - 1 U1 + 14 X_12_1
  <= 13
 mtz_12_2:
  + 1 U12 - 1 U2 + 14 X_12_2
  <= 13
 mtz_12_3:
  + 1 U12 - 1 U3 + 14 X_12_3
  <= 13
 mtz_12_4:
  + 1 U12 - 1 U4 + 14 X_12_4
  <= 13
 mtz_12_5:
  + 1 U12 - 1 U5 + 14 X_12_5
  <= 13
 mtz_12_6:
  + 1 U12 - 1 U6 + 14 X_12_6
  <= 13
 mtz_12_7:
  + 1 U12 - 1 U7 + 14 X_12_7
  <= 13
 mtz_12_8:
  + 1 U12 - 1 U8 + 14 X_12_8
  <= 13
 mtz_12_9:
  + 1 U12 - 1 U9 + 14 X_12_9
  <= 13
 mtz_12_10:
  + 1 U12 - 1 U10 + 14 X_12_10
  <= 13
 mtz_12_11:
  + 1 U12 - 1 U11 + 14 X_12_11
  <= 13
 mtz_12_13:
  + 1 U12 - 1 U13 + 14 X_12_13
  <= 13
 mtz_12_14:
  + 1 U12 - 1 U14 + 14 X_12_14
  <= 13
 mtz_13_1:
  + 1 U13 - 1 U1 + 14 X_13_1
  <= 13
 mtz_13_2:
  + 1 U13 - 1 U2 + 14 X_13_2
  <= 13
 mtz_13_3:
  + 1 U13 - 1 U3 + 14 X_13_3
  <= 13
 mtz_13_4:
  + 1 U13 - 1 U4 + 14 X_13_4
  <= 13
 mtz_13_5:
  + 1 U13 - 1 U5 + 14 X_13_5
  <= 13
 mtz_13_6:
  + 1 U13 - 1 U6 + 14 X_13_6
  <= 13
 mtz_13_7:
  + 1 U13 - 1 U7 + 14 X_13_7
  <= 13
 mtz_13_8:
  + 1 U13 - 1 U8 + 14 X_13_8
  <= 13
 mtz_13_9:
  + 1 U13 - 1 U9 + 14 X_13_9
  <= 13
 mtz_13_10:
  + 1 U13 - 1 U10 + 14 X_13_10
  <= 13
 mtz_13_11:
  + 1 U13 - 1 U11 + 14 X_13_11
  <= 13
 mtz_13_12:
  + 1 U13 - 1 U12 + 14 X_13_12
  <= 13
 mtz_13_14:
  + 1 U13 - 1 U14 + 14 X_13_14
  <= 13
 mtz_14_1:
  + 1 U14 - 1 U1 + 14 X_14_1
  <= 13
 mtz_14_2:
  + 1 U14 - 1 U2 + 14 X_14_2
  <= 13
 mtz_14_3:
  + 1 U14 - 1 U3 + 14 X_14_3
  <= 13
 mtz_14_4:
  + 1 U14 - 1 U4 + 14 X_14_4
  <= 13
 mtz_14_5:
  + 1 U14 - 1 U5 + 14 X_14_5
  <= 13
 mtz_14_6:
  + 1 U14 - 1 U6 + 14 X_14_6
  <= 13
 mtz_14_7:
  + 1 U14 - 1 U7 + 14 X_14_7
  <= 13
 mtz_14_8:
  + 1 U14 - 1 U8 + 14 X_14_8
  <= 13
 mtz_14_9:
  + 1 U14 - 1 U9 + 14 X_14_9
  <= 13
 mtz_14_10:
  + 1 U14 - 1 U10 + 14 X_14_10
  <= 13
 mtz_14_11:
  + 1 U14 - 1 U11 + 14 X_14_11
  <= 13
 mtz_14_12:
  + 1 U14 - 1 U12 + 14 X_14_12
  <= 13
 mtz_14_13:
  + 1 U14 - 1 U13 + 14 X_14_13
  <= 13
 obj1:
  + 251 X_0_1 + 149 X_0_2 + 195 X_0_3 + 582 X_0_4 + 547 X_0_5 + 280 X_0_6 + 555 X_0_7 + 226 X_0_8
  + 378 X_0_9 + 381 X_0_10 + 388 X_0_11 + 611 X_0_12 + 422 X_0_13 + 590 X_0_14 + 251 X_1_0 + 205 X_1_2
  + 339 X_1_3 + 824 X_1_4 + 788 X_1_5 + 116 X_1_6 + 610 X_1_7 + 232 X_1_8 + 619 X_1_9 + 501 X_1_10
  + 544 X_1_11 + 862 X_1_12 + 247 X_1_13 + 837 X_1_14 + 149 X_2_0 + 205 X_2_1 + 335 X_2_3 + 710 X_2_4
  + 675 X_2_5 + 292 X_2_6 + 683 X_2_7 + 77 X_2_8 + 438 X_2_9 + 303 X_2_10 + 340 X_2_11 + 717 X_2_12
  + 439 X_2_13 + 707 X_2_14 + 195 X_3_0 + 339 X_3_1 + 335 X_3_2 + 523 X_3_4 + 488 X_3_5 + 292 X_3_6
  + 362 X_3_7 + 412 X_3_8 + 467 X_3_9 + 569 X_3_10 + 563 X_3_11 + 600 X_3_12 + 385 X_3_13 + 555 X_3_14
  + 582 X_4_0 + 824 X_4_1 + 710 X_4_2 + 523 X_4_3 + 35 X_4_5 + 808 X_4_6 + 657 X_4_7 + 773 X_4_8
  + 389 X_4_9 + 733 X_4_10 + 668 X_4_11 + 154 X_4_12 + 907 X_4_13 + 75 X_4_14 + 547 X_5_0 + 788 X_5_1
  + 675 X_5_2 + 488 X_5_3 + 35 X_5_4 + 773 X_5_6 + 633 X_5_7 + 739 X_5_8 + 365 X_5_9 + 704 X_5_10
  + 641 X_5_11 + 163 X_5_12 + 873 X_5_13 + 88 X_5_14 + 280 X_6_0 + 116 X_6_1 + 292 X_6_2 + 292 X_6_3
  + 808 X_6_4 + 773 X_6_5 + 508 X_6_7 + 336 X_6_8 + 659 X_6_9 + 595 X_6_10 + 629 X_6_11 + 867 X_6_12
  + 148 X_6_13 + 832 X_6_14 + 555 X_7_0 + 610 X_7_1 + 683 X_7_2 + 362 X_7_3 + 657 X_7_4 + 633 X_7_5
  + 508 X_7_6 + 757 X_7_8 + 780 X_7_9 + 932 X_7_10 + 922 X_7_11 + 790 X_7_12 + 489 X_7_13 + 720 X_7_14
  + 226 X_8_0 + 232 X_8_1 + 77 X_8_2 + 412 X_8_3 + 773 X_8_4 + 739 X_8_5 + 336 X_8_6 + 757 X_8_7
  + 474 X_8_9 + 272 X_8_10 + 327 X_8_11 + 769 X_8_12 + 478 X_8_13 + 765 X_8_14 + 378 X_9_0 + 619 X_9_1
  + 438 X_9_2 + 467 X_9_3 + 389 X_9_4 + 365 X_9_5 + 659 X_9_6 + 780 X_9_7 + 474 X_9_8 + 353 X_9_10
  + 281 X_9_11 + 322 X_9_12 + 797 X_9_13 + 347 X_9_14 + 381 X_10_0 + 501 X_10_1 + 303 X_10_2 + 569 X_10_3
  + 733 X_10_4 + 704 X_10_5 + 595 X_10_6 + 932 X_10_7 + 272 X_10_8 + 353 X_10_9 + 82 X_10_11 + 675 X_10_12
  + 741 X_10_13 + 699 X_10_14 + 388 X_11_0 + 544 X_11_1 + 340 X_11_2 + 563 X_11_3 + 668 X_11_4 + 641 X_11_5
  + 629 X_11_6 + 922 X_11_7 + 327 X_11_8 + 281 X_11_9 + 82 X_11_10 + 601 X_11_12 + 777 X_11_13 + 629 X_11_14
  + 611 X_12_0 + 862 X_12_1 + 717 X_12_2 + 600 X_12_3 + 154 X_12_4 + 163 X_12_5 + 867 X_12_6 + 790 X_12_7
  + 769 X_12_8 + 322 X_12_9 + 675 X_12_10 + 601 X_12_11 + 982 X_12_13 + 78 X_12_14 + 422 X_13_0 + 247 X_13_1
  + 439 X_13_2 + 385 X_13_3 + 907 X_13_4 + 873 X_13_5 + 148 X_13_6 + 489 X_13_7 + 478 X_13_8 + 797 X_13_9
  + 741 X_13_10 + 777 X_13_11 + 982 X_13_12 + 940 X_13_14 + 590 X_14_0 + 837 X_14_1 + 707 X_14_2 + 555 X_14_3
  + 75 X_14_4 + 88 X_14_5 + 832 X_14_6 + 720 X_14_7 + 765 X_14_8 + 347 X_14_9 + 699 X_14_10 + 629 X_14_11
  + 78 X_14_12 + 940 X_14_13
  <= 1
 obj2:
  + 812 X_0_1 + 330 X_0_2 + 566 X_0_3 + 181 X_0_4 + 384 X_0_5 + 707 X_0_6 + 706 X_0_7 + 393 X_0_8
  + 760 X_0_9 + 928 X_0_10 + 897 X_0_11 + 676 X_0_12 + 414 X_0_13 + 572 X_0_14 + 812 X_1_0 + 581 X_1_2
  + 291 X_1_3 + 633 X_1_4 + 713 X_1_5 + 784 X_1_6 + 616 X_1_7 + 695 X_1_8 + 507 X_1_9 + 426 X_1_10
  + 143 X_1_11 + 200 X_1_12 + 505 X_1_13 + 240 X_1_14 + 330 X_2_0 + 581 X_2_1 + 293 X_2_3 + 239 X_2_4
  + 163 X_2_5 + 432 X_2_6 + 387 X_2_7 + 153 X_2_8 + 740 X_2_9 + 605 X_2_10 + 628 X_2_11 + 517 X_2_12
  + 420 X_2_13 + 362 X_2_14 + 566 X_3_0 + 291 X_3_1 + 293 X_3_2 + 404 X_3_4 + 421 X_3_5 + 537 X_3_6
  + 394 X_3_7 + 404 X_3_8 + 595 X_3_9 + 402 X_3_10 + 338 X_3_11 + 288 X_3_12 + 397 X_3_13 + 129 X_3_14
  + 181 X_4_0 + 633 X_4_1 + 239 X_4_2 + 404 X_4_3 + 364 X_4_5 + 667 X_4_6 + 623 X_4_7 + 364 X_4_8
  + 608 X_4_9 + 788 X_4_10 + 725 X_4_11 + 496 X_4_12 + 257 X_4_13 + 394 X_4_14 + 384 X_5_0 + 713 X_5_1
  + 163 X_5_2 + 421 X_5_3 + 364 X_5_4 + 323 X_5_6 + 347 X_5_7 + 19 X_5_8 + 903 X_5_9 + 647 X_5_10
  + 738 X_5_11 + 673 X_5_12 + 578 X_5_13 + 512 X_5_14 + 707 X_6_0 + 784 X_6_1 + 432 X_6_2 + 537 X_6_3
  + 667 X_6_4 + 323 X_6_5 + 177 X_6_7 + 314 X_6_8 + 1117 X_6_9 + 527 X_6_10 + 747 X_6_11 + 825 X_6_12
  + 837 X_6_13 + 663 X_6_14 + 706 X_7_0 + 616 X_7_1 + 387 X_7_2 + 394 X_7_3 + 623 X_7_4 + 347 X_7_5
  + 177 X_7_6 + 330 X_7_8 + 989 X_7_9 + 357 X_7_10 + 571 X_7_11 + 679 X_7_12 + 744 X_7_13 + 524 X_7_14
  + 393 X_8_0 + 695 X_8_1 + 153 X_8_2 + 404 X_8_3 + 364 X_8_4 + 19 X_8_5 + 314 X_8_6 + 330 X_8_7
  + 893 X_8_9 + 627 X_8_10 + 719 X_8_11 + 658 X_8_12 + 572 X_8_13 + 497 X_8_14 + 760 X_9_0 + 507 X_9_1
  + 740 X_9_2 + 595 X_9_3 + 608 X_9_4 + 903 X_9_5 + 1117 X_9_6 + 989 X_9_7 + 893 X_9_8 + 915 X_9_10
  + 649 X_9_11 + 332 X_9_12 + 351 X_9_13 + 466 X_9_14 + 928 X_10_0 + 426 X_10_1 + 605 X_10_2 + 402 X_10_3
  + 788 X_10_4 + 647 X_10_5 + 527 X_10_6 + 357 X_10_7 + 627 X_10_8 + 915 X_10_9 + 312 X_10_11 + 583 X_10_12
  + 795 X_10_13 + 492 X_10_14 + 897 X_11_0 + 143 X_11_1 + 628 X_11_2 + 338 X_11_3 + 725 X_11_4 + 738 X_11_5
  + 747 X_11_6 + 571 X_11_7 + 719 X_11_8 + 649 X_11_9 + 312 X_11_10 + 341 X_11_12 + 631 X_11_13 + 338 X_11_14
  + 676 X_12_0 + 200 X_12_1 + 517 X_12_2 + 288 X_12_3 + 496 X_12_4 + 673 X_12_5 + 825 X_12_6 + 679 X_12_7
  + 658 X_12_8 + 332 X_12_9 + 583 X_12_10 + 341 X_12_11 + 318 X_12_13 + 165 X_12_14 + 414 X_13_0 + 505 X_13_1
  + 420 X_13_2 + 397 X_13_3 + 257 X_13_4 + 578 X_13_5 + 837 X_13_6 + 744 X_13_7 + 572 X_13_8 + 351 X_13_9
  + 795 X_13_10 + 631 X_13_11 + 318 X_13_12 + 308 X_13_14 + 572 X_14_0 + 240 X_14_1 + 362 X_14_2 + 129 X_14_3
  + 394 X_14_4 + 512 X_14_5 + 663 X_14_6 + 524 X_14_7 + 497 X_14_8 + 466 X_14_9 + 492 X_14_10 + 338 X_14_11
  + 165 X_14_12 + 308 X_14_13
  <= 2
 obj3:
  + 196 X_0_1 + 290 X_0_2 + 243 X_0_3 + 625 X_0_4 + 42 X_0_5 + 244 X_0_6 + 258 X_0_7 + 173 X_0_8
  + 250 X_0_9 + 542 X_0_10 + 376 X_0_11 + 932 X_0_12 + 513 X_0_13 + 303 X_0_14 + 196 X_1_0 + 216 X_1_2
  + 72 X_1_3 + 760 X_1_4 + 204 X_1_5 + 146 X_1_6 + 302 X_1_7 + 109 X_1_8 + 446 X_1_9 + 678 X_1_10
  + 502 X_1_11 + 831 X_1_12 + 379 X_1_13 + 418 X_1_14 + 290 X_2_0 + 216 X_2_1 + 281 X_2_3 + 915 X_2_4
  + 325 X_2_5 + 69 X_2_6 + 164 X_2_7 + 316 X_2_8 + 472 X_2_9 + 832 X_2_10 + 662 X_2_11 + 1032 X_2_12
  + 574 X_2_13 + 312 X_2_14 + 243 X_3_0 + 72 X_3_1 + 281 X_3_2 + 751 X_3_4 + 239 X_3_5 + 212 X_3_6
  + 375 X_3_7 + 96 X_3_8 + 493 X_3_9 + 671 X_3_10 + 496 X_3_11 + 758 X_3_12 + 306 X_3_13 + 488 X_3_14
  + 625 X_4_0 + 760 X_4_1 + 915 X_4_2 + 751 X_4_3 + 590 X_4_5 + 863 X_4_6 + 860 X_4_7 + 658 X_4_8
  + 561 X_4_9 + 83 X_4_10 + 257 X_4_11 + 961 X_4_12 + 799 X_4_13 + 826 X_4_14 + 42 X_5_0 + 204 X_5_1
  + 325 X_5_2 + 239 X_5_3 + 590 X_5_4 + 274 X_5_6 + 300 X_5_7 + 157 X_5_8 + 258 X_5_9 + 506 X_5_10
  + 337 X_5_11 + 900 X_5_12 + 491 X_5_13 + 342 X_5_14 + 244 X_6_0 + 146 X_6_1 + 69 X_6_2 + 212 X_6_3
  + 863 X_6_4 + 274 X_6_5 + 194 X_6_7 + 248 X_6_8 + 453 X_6_9 + 779 X_6_10 + 607 X_6_11 + 966 X_6_12
  + 509 X_6_13 + 335 X_6_14 + 258 X_7_0 + 302 X_7_1 + 164 X_7_2 + 375 X_7_3 + 860 X_7_4 + 300 X_7_5
  + 194 X_7_6 + 369 X_7_8 + 351 X_7_9 + 779 X_7_10 + 623 X_7_11 + 1132 X_7_12 + 682 X_7_13 + 148 X_7_14
  + 173 X_8_0 + 109 X_8_1 + 316 X_8_2 + 96 X_8_3 + 658 X_8_4 + 157 X_8_5 + 248 X_8_6 + 369 X_8_7
  + 416 X_8_9 + 577 X_8_10 + 402 X_8_11 + 771 X_8_12 + 340 X_8_13 + 457 X_8_14 + 250 X_9_0 + 446 X_9_1
  + 472 X_9_2 + 493 X_9_3 + 561 X_9_4 + 258 X_9_5 + 453 X_9_6 + 351 X_9_7 + 416 X_9_8 + 487 X_9_10
  + 378 X_9_11 + 1128 X_9_12 + 745 X_9_13 + 272 X_9_14 + 542 X_10_0 + 678 X_10_1 + 832 X_10_2 + 671 X_10_3
  + 83 X_10_4 + 506 X_10_5 + 779 X_10_6 + 779 X_10_7 + 577 X_10_8 + 487 X_10_9 + 175 X_10_11 + 929 X_10_12
  + 735 X_10_13 + 749 X_10_14 + 376 X_11_0 + 502 X_11_1 + 662 X_11_2 + 496 X_11_3 + 257 X_11_4 + 337 X_11_5
  + 607 X_11_6 + 623 X_11_7 + 402 X_11_8 + 378 X_11_9 + 175 X_11_10 + 849 X_11_12 + 587 X_11_13 + 614 X_11_14
  + 932 X_12_0 + 831 X_12_1 + 1032 X_12_2 + 758 X_12_3 + 961 X_12_4 + 900 X_12_5 + 966 X_12_6 + 1132 X_12_7
  + 771 X_12_8 + 1128 X_12_9 + 929 X_12_10 + 849 X_12_11 + 457 X_12_13 + 1228 X_12_14 + 513 X_13_0 + 379 X_13_1
  + 574 X_13_2 + 306 X_13_3 + 799 X_13_4 + 491 X_13_5 + 509 X_13_6 + 682 X_13_7 + 340 X_13_8 + 745 X_13_9
  + 735 X_13_10 + 587 X_13_11 + 457 X_13_12 + 791 X_13_14 + 303 X_14_0 + 418 X_14_1 + 312 X_14_2 + 488 X_14_3
  + 826 X_14_4 + 342 X_14_5 + 335 X_14_6 + 148 X_14_7 + 457 X_14_8 + 272 X_14_9 + 749 X_14_10 + 614 X_14_11
  + 1228 X_14_12 + 791 X_14_13
  <= 3
 obj4:
  + 654 X_0_1 + 431 X_0_2 + 543 X_0_3 + 417 X_0_4 + 667 X_0_5 + 542 X_0_6 + 954 X_0_7 + 377 X_0_8
  + 345 X_0_9 + 534 X_0_10 + 467 X_0_11 + 657 X_0_12 + 482 X_0_13 + 459 X_0_14 + 654 X_1_0 + 256 X_1_2
  + 695 X_1_3 + 400 X_1_4 + 737 X_1_5 + 481 X_1_6 + 452 X_1_7 + 302 X_1_8 + 476 X_1_9 + 276 X_1_10
  + 633 X_1_11 + 16 X_1_12 + 771 X_1_13 + 903 X_1_14 + 431 X_2_0 + 256 X_2_1 + 471 X_2_3 + 164 X_2_4
  + 542 X_2_5 + 293 X_2_6 + 537 X_2_7 + 54 X_2_8 + 224 X_2_9 + 136 X_2_10 + 399 X_2_11 + 265 X_2_12
  + 527 X_2_13 + 648 X_2_14 + 543 X_3_0 + 695 X_3_1 + 471 X_3_2 + 307 X_3_4 + 126 X_3_5 + 225 X_3_6
  + 692 X_3_7 + 457 X_3_8 + 274 X_3_9 + 420 X_3_10 + 82 X_3_11 + 708 X_3_12 + 137 X_3_13 + 327 X_3_14
  + 417 X_4_0 + 400 X_4_1 + 164 X_4_2 + 307 X_4_3 + 382 X_4_5 + 150 X_4_6 + 551 X_4_7 + 156 X_4_8
  + 92 X_4_9 + 151 X_4_10 + 236 X_4_11 + 412 X_4_12 + 370 X_4_13 + 511 X_4_14 + 667 X_5_0 + 737 X_5_1
  + 542 X_5_2 + 126 X_5_3 + 382 X_5_4 + 257 X_5_6 + 652 X_5_7 + 538 X_5_8 + 374 X_5_9 + 462 X_5_10
  + 200 X_5_11 + 752 X_5_12 + 244 X_5_13 + 426 X_5_14 + 542 X_6_0 + 481 X_6_1 + 293 X_6_2 + 225 X_6_3
  + 150 X_6_4 + 257 X_6_5 + 491 X_6_7 + 300 X_6_8 + 197 X_6_9 + 204 X_6_10 + 190 X_6_11 + 495 X_6_12
  + 336 X_6_13 + 512 X_6_14 + 954 X_7_0 + 452 X_7_1 + 537 X_7_2 + 692 X_7_3 + 551 X_7_4 + 652 X_7_5
  + 491 X_7_6 + 588 X_7_8 + 641 X_7_9 + 420 X_7_10 + 679 X_7_11 + 465 X_7_12 + 820 X_7_13 + 1003 X_7_14
  + 377 X_8_0 + 302 X_8_1 + 54 X_8_2 + 457 X_8_3 + 156 X_8_4 + 538 X_8_5 + 300 X_8_6 + 588 X_8_7
  + 194 X_8_9 + 176 X_8_10 + 380 X_8_11 + 310 X_8_12 + 500 X_8_13 + 609 X_8_14 + 345 X_9_0 + 476 X_9_1
  + 224 X_9_2 + 274 X_9_3 + 92 X_9_4 + 374 X_9_5 + 197 X_9_6 + 641 X_9_7 + 194 X_9_8 + 243 X_9_10
  + 193 X_9_11 + 487 X_9_12 + 305 X_9_13 + 427 X_9_14 + 534 X_10_0 + 276 X_10_1 + 136 X_10_2 + 420 X_10_3
  + 151 X_10_4 + 462 X_10_5 + 204 X_10_6 + 420 X_10_7 + 176 X_10_8 + 243 X_10_9 + 364 X_10_11 + 291 X_10_12
  + 507 X_10_13 + 659 X_10_14 + 467 X_11_0 + 633 X_11_1 + 399 X_11_2 + 82 X_11_3 + 236 X_11_4 + 200 X_11_5
  + 190 X_11_6 + 679 X_11_7 + 380 X_11_8 + 193 X_11_9 + 364 X_11_10 + 646 X_11_12 + 146 X_11_13 + 323 X_11_14
  + 657 X_12_0 + 16 X_12_1 + 265 X_12_2 + 708 X_12_3 + 412 X_12_4 + 752 X_12_5 + 495 X_12_6 + 465 X_12_7
  + 310 X_12_8 + 487 X_12_9 + 291 X_12_10 + 646 X_12_11 + 783 X_12_13 + 913 X_12_14 + 482 X_13_0 + 771 X_13_1
  + 527 X_13_2 + 137 X_13_3 + 370 X_13_4 + 244 X_13_5 + 336 X_13_6 + 820 X_13_7 + 500 X_13_8 + 305 X_13_9
  + 507 X_13_10 + 146 X_13_11 + 783 X_13_12 + 190 X_13_14 + 459 X_14_0 + 903 X_14_1 + 648 X_14_2 + 327 X_14_3
  + 511 X_14_4 + 426 X_14_5 + 512 X_14_6 + 1003 X_14_7 + 609 X_14_8 + 427 X_14_9 + 659 X_14_10 + 323 X_14_11
  + 913 X_14_12 + 190 X_14_13
  <= 4
 obj5:
  + 295 X_0_1 + 437 X_0_2 + 577 X_0_3 + 447 X_0_4 + 893 X_0_5 + 482 X_0_6 + 311 X_0_7 + 358 X_0_8
  + 896 X_0_9 + 628 X_0_10 + 903 X_0_11 + 620 X_0_12 + 1016 X_0_13 + 135 X_0_14 + 295 X_1_0 + 171 X_1_2
  + 636 X_1_3 + 718 X_1_4 + 852 X_1_5 + 385 X_1_6 + 460 X_1_7 + 108 X_1_8 + 949 X_1_9 + 489 X_1_10
  + 1038 X_1_11 + 425 X_1_12 + 915 X_1_13 + 429 X_1_14 + 437 X_2_0 + 171 X_2_1 + 607 X_2_3 + 816 X_2_4
  + 752 X_2_5 + 300 X_2_6 + 507 X_2_7 + 79 X_2_8 + 896 X_2_9 + 360 X_2_10 + 1030 X_2_11 + 270 X_2_12
  + 783 X_2_13 + 572 X_2_14 + 577 X_3_0 + 636 X_3_1 + 607 X_3_2 + 542 X_3_4 + 364 X_3_5 + 325 X_3_6
  + 279 X_3_7 + 576 X_3_8 + 322 X_3_9 + 396 X_3_10 + 426 X_3_11 + 507 X_3_12 + 553 X_3_13 + 624 X_3_14
  + 447 X_4_0 + 718 X_4_1 + 816 X_4_2 + 542 X_4_3 + 904 X_4_5 + 695 X_4_6 + 349 X_4_7 + 743 X_4_8
  + 764 X_4_9 + 835 X_4_10 + 633 X_4_11 + 892 X_4_12 + 1094 X_4_13 + 358 X_4_14 + 893 X_5_0 + 852 X_5_1
  + 752 X_5_2 + 364 X_5_3 + 904 X_5_4 + 467 X_5_6 + 628 X_5_7 + 759 X_5_8 + 288 X_5_9 + 402 X_5_10
  + 564 X_5_11 + 526 X_5_12 + 216 X_5_13 + 965 X_5_14 + 482 X_6_0 + 385 X_6_1 + 300 X_6_2 + 325 X_6_3
  + 695 X_6_4 + 467 X_6_5 + 346 X_6_7 + 294 X_6_8 + 597 X_6_9 + 150 X_6_10 + 751 X_6_11 + 203 X_6_12
  + 544 X_6_13 + 590 X_6_14 + 311 X_7_0 + 460 X_7_1 + 507 X_7_2 + 279 X_7_3 + 349 X_7_4 + 628 X_7_5
  + 346 X_7_6 + 445 X_7_8 + 589 X_7_9 + 487 X_7_10 + 600 X_7_11 + 545 X_7_12 + 789 X_7_13 + 345 X_7_14
  + 358 X_8_0 + 108 X_8_1 + 79 X_8_2 + 576 X_8_3 + 743 X_8_4 + 759 X_8_5 + 294 X_8_6 + 445 X_8_7
  + 878 X_8_9 + 384 X_8_10 + 992 X_8_11 + 316 X_8_12 + 811 X_8_13 + 493 X_8_14 + 896 X_9_0 + 949 X_9_1
  + 896 X_9_2 + 322 X_9_3 + 764 X_9_4 + 288 X_9_5 + 597 X_9_6 + 589 X_9_7 + 878 X_9_8 + 601 X_9_10
  + 282 X_9_11 + 729 X_9_12 + 497 X_9_13 + 930 X_9_14 + 628 X_10_0 + 489 X_10_1 + 360 X_10_2 + 396 X_10_3
  + 835 X_10_4 + 402 X_10_5 + 150 X_10_6 + 487 X_10_7 + 384 X_10_8 + 601 X_10_9 + 802 X_10_11 + 128 X_10_12
  + 426 X_10_13 + 740 X_10_14 + 903 X_11_0 + 1038 X_11_1 + 1030 X_11_2 + 426 X_11_3 + 633 X_11_4 + 564 X_11_5
  + 751 X_11_6 + 600 X_11_7 + 992 X_11_8 + 282 X_11_9 + 802 X_11_10 + 923 X_11_12 + 777 X_11_13 + 895 X_11_14
  + 620 X_12_0 + 425 X_12_1 + 270 X_12_2 + 507 X_12_3 + 892 X_12_4 + 526 X_12_5 + 203 X_12_6 + 545 X_12_7
  + 316 X_12_8 + 729 X_12_9 + 128 X_12_10 + 923 X_12_11 + 520 X_12_13 + 744 X_12_14 + 1016 X_13_0 + 915 X_13_1
  + 783 X_13_2 + 553 X_13_3 + 1094 X_13_4 + 216 X_13_5 + 544 X_13_6 + 789 X_13_7 + 811 X_13_8 + 497 X_13_9
  + 426 X_13_10 + 777 X_13_11 + 520 X_13_12 + 1107 X_13_14 + 135 X_14_0 + 429 X_14_1 + 572 X_14_2 + 624 X_14_3
  + 358 X_14_4 + 965 X_14_5 + 590 X_14_6 + 345 X_14_7 + 493 X_14_8 + 930 X_14_9 + 740 X_14_10 + 895 X_14_11
  + 744 X_14_12 + 1107 X_14_13
  <= 5
 obj6:
  + 615 X_0_1 + 535 X_0_2 + 639 X_0_3 + 679 X_0_4 + 514 X_0_5 + 565 X_0_6 + 636 X_0_7 + 484 X_0_8
  + 987 X_0_9 + 954 X_0_10 + 917 X_0_11 + 889 X_0_12 + 607 X_0_13 + 211 X_0_14 + 615 X_1_0 + 429 X_1_2
  + 375 X_1_3 + 446 X_1_4 + 457 X_1_5 + 281 X_1_6 + 509 X_1_7 + 237 X_1_8 + 479 X_1_9 + 340 X_1_10
  + 327 X_1_11 + 282 X_1_12 + 445 X_1_13 + 436 X_1_14 + 535 X_2_0 + 429 X_2_1 + 743 X_2_3 + 147 X_2_4
  + 39 X_2_5 + 635 X_2_6 + 112 X_2_7 + 203 X_2_8 + 523 X_2_9 + 651 X_2_10 + 730 X_2_11 + 667 X_2_12
  + 71 X_2_13 + 338 X_2_14 + 639 X_3_0 + 375 X_3_1 + 743 X_3_2 + 801 X_3_4 + 759 X_3_5 + 108 X_3_6
  + 843 X_3_7 + 541 X_3_8 + 835 X_3_9 + 588 X_3_10 + 435 X_3_11 + 457 X_3_12 + 780 X_3_13 + 569 X_3_14
  + 679 X_4_0 + 446 X_4_1 + 147 X_4_2 + 801 X_4_3 + 179 X_4_5 + 695 X_4_6 + 101 X_4_7 + 272 X_4_8
  + 397 X_4_9 + 587 X_4_10 + 703 X_4_11 + 634 X_4_12 + 78 X_4_13 + 476 X_4_14 + 514 X_5_0 + 457 X_5_1
  + 39 X_5_2 + 759 X_5_3 + 179 X_5_4 + 651 X_5_6 + 122 X_5_7 + 225 X_5_8 + 561 X_5_9 + 688 X_5_10
  + 763 X_5_11 + 702 X_5_12 + 100 X_5_13 + 324 X_5_14 + 565 X_6_0 + 281 X_6_1 + 635 X_6_2 + 108 X_6_3
  + 695 X_6_4 + 651 X_6_5 + 735 X_6_7 + 434 X_6_8 + 755 X_6_9 + 540 X_6_10 + 416 X_6_11 + 421 X_6_12
  + 673 X_6_13 + 472 X_6_14 + 636 X_7_0 + 509 X_7_1 + 112 X_7_2 + 843 X_7_3 + 101 X_7_4 + 122 X_7_5
  + 735 X_7_6 + 301 X_7_8 + 497 X_7_9 + 683 X_7_10 + 787 X_7_11 + 720 X_7_12 + 63 X_7_13 + 446 X_7_14
  + 484 X_8_0 + 237 X_8_1 + 203 X_8_2 + 541 X_8_3 + 272 X_8_4 + 225 X_8_5 + 434 X_8_6 + 301 X_8_7
  + 503 X_8_9 + 518 X_8_10 + 557 X_8_11 + 502 X_8_12 + 240 X_8_13 + 275 X_8_14 + 987 X_9_0 + 479 X_9_1
  + 523 X_9_2 + 835 X_9_3 + 397 X_9_4 + 561 X_9_5 + 755 X_9_6 + 497 X_9_7 + 503 X_9_8 + 338 X_9_10
  + 527 X_9_11 + 458 X_9_12 + 469 X_9_13 + 777 X_9_14 + 954 X_10_0 + 340 X_10_1 + 651 X_10_2 + 588 X_10_3
  + 587 X_10_4 + 688 X_10_5 + 540 X_10_6 + 683 X_10_7 + 518 X_10_8 + 338 X_10_9 + 196 X_10_11 + 138 X_10_12
  + 630 X_10_13 + 766 X_10_14 + 917 X_11_0 + 327 X_11_1 + 730 X_11_2 + 435 X_11_3 + 703 X_11_4 + 763 X_11_5
  + 416 X_11_6 + 787 X_11_7 + 557 X_11_8 + 527 X_11_9 + 196 X_11_10 + 72 X_11_12 + 727 X_11_13 + 757 X_11_14
  + 889 X_12_0 + 282 X_12_1 + 667 X_12_2 + 457 X_12_3 + 634 X_12_4 + 702 X_12_5 + 421 X_12_6 + 720 X_12_7
  + 502 X_12_8 + 458 X_12_9 + 138 X_12_10 + 72 X_12_11 + 661 X_12_13 + 718 X_12_14 + 607 X_13_0 + 445 X_13_1
  + 71 X_13_2 + 780 X_13_3 + 78 X_13_4 + 100 X_13_5 + 673 X_13_6 + 63 X_13_7 + 240 X_13_8 + 469 X_13_9
  + 630 X_13_10 + 727 X_13_11 + 661 X_13_12 + 408 X_13_14 + 211 X_14_0 + 436 X_14_1 + 338 X_14_2 + 569 X_14_3
  + 476 X_14_4 + 324 X_14_5 + 472 X_14_6 + 446 X_14_7 + 275 X_14_8 + 777 X_14_9 + 766 X_14_10 + 757 X_14_11
  + 718 X_14_12 + 408 X_14_13
  <= 6
Bounds
 1 <= U1 <= 14
 1 <= U2 <= 14
 1 <= U3 <= 14
 1 <= U4 <= 14
 1 <= U5 <= 14
 1 <= U6 <= 14
 1 <= U7 <= 14
 1 <= U8 <= 14
 1 <= U9 <= 14
 1 <= U10 <= 14
 1 <= U11 <= 14
 1 <= U12 <= 14
 1 <= U13 <= 14
 1 <= U14 <= 14
Binary
 X_0_1
 X_0_2
 X_0_3
 X_0_4
 X_0_5
 X_0_6
 X_0_7
 X_0_8
 X_0_9
 X_0_10
 X_0_11
 X_0_12
 X_0_13
 X_0_14
 X_1_0
 X_1_2
 X_1_3
 X_1_4
 X_1_5
 X_1_6
 X_1_7
 X_1_8
 X_1_9
 X_1_10
 X_1_11
 X_1_12
 X_1_13
 X_1_14
 X_2_0
 X_2_1
 X_2_3
 X_2_4
 X_2_5
 X_2_6
 X_2_7
 X_2_8
 X_2_9
 X_2_10
 X_2_11
 X_2_12
 X_2_13
 X_2_14
 X_3_0
 X_3_1
 X_3_2
 X_3_4
 X_3_5
 X_3_6
 X_3_7
 X_3_8
 X_3_9
 X_3_10
 X_3_11
 X_3_12
 X_3_13
 X_3_14
 X_4_0
 X_4_1
 X_4_2
 X_4_3
 X_4_5
 X_4_6
 X_4_7
 X_4_8
 X_4_9
 X_4_10
 X_4_11
 X_4_12
 X_4_13
 X_4_14
 X_5_0
 X_5_1
 X_5_2
 X_5_3
 X_5_4
 X_5_6
 X_5_7
 X_5_8
 X_5_9
 X_5_10
 X_5_11
 X_5_12
 X_5_13
 X_5_14
 X_6_0
 X_6_1
 X_6_2
 X_6_3
 X_6_4
 X_6_5
 X_6_7
 X_6_8
 X_6_9
 X_6_10
 X_6_11
 X_6_12
 X_6_13
 X_6_14
 X_7_0
 X_7_1
 X_7_2
 X_7_3
 X_7_4
 X_7_5
 X_7_6
 X_7_8
 X_7_9
 X_7_10
 X_7_11
 X_7_12
 X_7_13
 X_7_14
 X_8_0
 X_8_1
 X_8_2
 X_8_3
 X_8_4
 X_8_5
 X_8_6
 X_8_7
 X_8_9
 X_8_10
 X_8_11
 X_8_12
 X_8_13
 X_8_14
 X_9_0
 X_9_1
 X_9_2
 X_9_3
 X_9_4
 X_9_5
 X_9_6
 X_9_7
 X_9_8
 X_9_10
 X_9_11
 X_9_12
 X_9_13
 X_9_14
 X_10_0
 X_10_1
 X_10_2
 X_10_3
 X_10_4
 X_10_5
 X_10_6
 X_10_7
 X_10_8
 X_10_9
 X_10_11
 X_10_12
 X_10_13
 X_10_14
 X_11_0
 X_11_1
 X_11_2
 X_11_3
 X_11_4
 X_11_5
 X_11_6
 X_11_7
 X_11_8
 X_11_9
 X_11_10
 X_11_12
 X_11_13
 X_11_14
 X_12_0
 X_12_1
 X_12_2
 X_12_3
 X_12_4
 X_12_5
 X_12_6
 X_12_7
 X_12_8
 X_12_9
 X_12_10
 X_12_11
 X_12_13
 X_12_14
 X_13_0
 X_13_1
 X_13_2
 X_13_3
 X_13_4
 X_13_5
 X_13_6
 X_13_7
 X_13_8
 X_13_9
 X_13_10
 X_13_11
 X_13_12
 X_13_14
 X_14_0
 X_14_1
 X_14_2
 X_14_3
 X_14_4
 X_14_5
 X_14_6
 X_14_7
 X_14_8
 X_14_9
 X_14_10
 X_14_11
 X_14_12
 X_14_13
End
